p cnf 8 27
8 3 0
-8 -5 -4 0
-8 -7 -6 0
8 -6 -3 6 0
-8 7 0
-8 -4 6 0
-5 -3 0
1 2 3 -2 0
-8 -7 -5 6 0
8 -7 0
-2 7 0
1 2 -6 -1 0
8 -2 6 0
-5 4 -3 0
-2 0
1 -6 -4 0
3 -4 0
-8 -7 -6 6 0
2 -6 7 0
1 4 -3 0
3 4 -1 7 0
8 7 0
2 0
-1 0
8 -1 0
-8 1 6 8 0
8 4 0
